proyfinal/src/viki/013/andrea/andrea-localstore/experimentInOfficeAgust.take6/worker_8/fcb173cf-462b-4e04-a169-1e57182476b0.als.cnf.out
Reading from standard input... Use '--help' for help.
============================[ Problem Statistics ]=============================
|                                                                             |
|  Number of variables:         87638                                         |
|  Number of clauses:          161767                                         |
|  Parse time:                   0.03 s                                       |
|                                                                             |
============================[ Search Statistics ]==============================
| Conflicts |          ORIGINAL         |          LEARNT          | Progress |
|           |    Vars  Clauses Literals |    Limit  Clauses Lit/Cl |          |
===============================================================================
|       100 |   62440   105612   263376 |    38724      100     27 | 28.752 % |
|       250 |   62440   105612   263376 |    42596      250     81 | 28.752 % |
|       475 |   62440   105612   263376 |    46856      475     64 | 28.752 % |
|       812 |   62440   105612   263376 |    51542      812     52 | 28.752 % |
|      1318 |   62440   105612   263376 |    56696     1318     52 | 28.752 % |
|      2077 |   62440   105612   263376 |    62366     2077     56 | 28.752 % |
|      3216 |   62440   105612   263376 |    68602     3216     59 | 28.752 % |
|      4924 |   62440   105612   263376 |    75462     4924     59 | 28.752 % |
|      7486 |   54298    80358   201544 |    83009     7341     72 | 38.043 % |
|     11330 |   54140    79876   200420 |    91310    11162     66 | 38.223 % |
|     17096 |   54065    79337   199135 |   100441    16411     61 | 38.309 % |
===============================================================================
restarts              : 63
conflicts             : 19008          (8601 /sec)
decisions             : 57781          (0.00 % random) (26146 /sec)
propagations          : 23743885       (10744063 /sec)
conflict literals     : 1111612        (47.54 % deleted)
Memory used           : 36.36 MB
CPU time              : 2.20995 s

UNSATISFIABLE
